m = 3; % number of couriers
n = 4; % number of packages

l = [3, 4, 5]; % maximum carriable weight per courier
s = [2, 2, 2, 2]; % weight of each package

D = % distance matrix 
	 [| 3, 3, 1, 3, 4
	 | 3, 4, 4, 2, 4
	 | 2, 3, 3, 4, 4
	 | 4, 1, 2, 1, 1
	 | 1, 3, 2, 3, 3
	 |];